(set-logic QF_FP)
(set-option :produce-models true)
(set-info :source |Random FP created by PyMPF|)
(set-info :category random)
(set-info :status sat)
(declare-const x Float32)
(assert (= x ((_ to_fp 8 24) #xD999EA34)))
(declare-const y Float32)
(assert (= y ((_ to_fp 8 24) #x007FFFFF)))
(declare-const z Float32)
(assert (= z ((_ to_fp 8 24) #x007FFFFF)))
(declare-const result Float32)
(assert (= result (fp.fma RTN x y z)))
(assert (= result (fp #b1 #b00110101 #b00110011110101000110011)))
(check-sat)
(exit)
